12
1 0 2
2 0 1
2 1 5
3 0 3
3 1 5
3 2 3
4 0 5
4 1 1
4 2 4
4 3 5
5 0 4
5 1 1
5 2 3
5 3 1
5 4 1
6 0 2
6 1 3
6 2 3
6 3 2
6 4 4
6 5 2
7 0 3
7 1 1
7 2 5
7 3 3
7 4 1
7 5 4
7 6 2
8 0 5
8 1 4
8 2 5
8 3 1
8 4 3
8 5 2
8 6 2
8 7 1
9 0 4
9 1 2
9 2 5
9 3 3
9 4 4
9 5 1
9 6 4
9 7 3
9 8 1
10 0 3
10 1 1
10 2 4
10 3 3
10 4 5
10 5 5
10 6 1
10 7 3
10 8 4
10 9 5
11 0 5
11 1 5
11 2 1
11 3 3
11 4 4
11 5 1
11 6 4
11 7 4
11 8 1
11 9 4
11 10 5
